c Created with the Wolfram Language : www.wolfram.com
c 
p edge 80 301
e 3 4
e 4 6
e 5 6
e 2 7
e 3 7
e 6 7
e 6 10
e 7 10
e 10 11
e 7 13
e 9 13
e 2 14
e 8 14
e 5 15
e 10 15
e 11 15
e 6 17
e 13 17
e 6 18
e 15 20
e 3 21
e 12 21
e 17 21
e 12 23
e 13 23
e 16 23
e 13 24
e 14 24
e 16 24
e 19 24
e 22 24
e 12 25
e 17 25
e 23 25
e 2 26
e 1 27
e 2 27
e 2 28
e 3 28
e 8 28
e 15 28
e 20 28
e 23 28
e 5 29
e 10 29
e 2 30
e 11 30
e 17 30
e 23 30
e 1 31
e 2 31
e 5 31
e 12 31
e 14 31
e 11 32
e 18 32
e 22 32
e 29 32
e 31 32
e 7 33
e 16 33
e 3 34
e 17 34
e 23 34
e 2 35
e 5 35
e 4 36
e 6 36
e 9 36
e 12 36
e 13 36
e 20 36
e 29 36
e 26 37
e 9 38
e 19 38
e 34 38
e 10 39
e 19 39
e 26 39
e 2 40
e 32 40
e 8 41
e 19 41
e 38 41
e 12 42
e 18 42
e 26 42
e 31 42
e 41 42
e 16 43
e 31 43
e 34 44
e 6 45
e 37 45
e 40 45
e 1 46
e 19 46
e 23 46
e 32 46
e 43 46
e 43 47
e 1 48
e 21 48
e 39 48
e 1 49
e 18 49
e 32 49
e 38 49
e 40 49
e 42 49
e 1 50
e 2 50
e 10 50
e 16 50
e 19 50
e 48 50
e 49 50
e 4 51
e 6 51
e 11 51
e 16 51
e 18 51
e 20 51
e 29 51
e 43 51
e 50 51
e 8 52
e 9 52
e 51 52
e 2 53
e 26 53
e 48 53
e 51 53
e 1 54
e 25 54
e 29 54
e 53 54
e 15 55
e 20 55
e 23 55
e 38 55
e 41 55
e 43 55
e 44 55
e 46 55
e 54 55
e 9 56
e 11 56
e 34 56
e 45 56
e 22 57
e 26 57
e 28 57
e 49 57
e 10 58
e 13 58
e 21 58
e 30 58
e 7 59
e 13 59
e 23 59
e 43 59
e 50 59
e 4 60
e 6 60
e 15 60
e 16 60
e 18 60
e 35 60
e 53 60
e 55 60
e 4 61
e 6 61
e 11 61
e 14 61
e 28 61
e 60 61
e 4 62
e 19 62
e 20 62
e 31 62
e 38 62
e 39 62
e 57 62
e 16 63
e 19 63
e 33 63
e 56 63
e 48 64
e 57 64
e 6 65
e 19 65
e 20 65
e 40 65
e 43 65
e 53 65
e 17 66
e 36 66
e 42 66
e 44 66
e 55 66
e 29 67
e 36 67
e 46 67
e 49 67
e 54 67
e 55 67
e 59 67
e 62 67
e 64 67
e 3 68
e 17 68
e 20 68
e 31 68
e 54 68
e 8 69
e 11 69
e 32 69
e 33 69
e 39 69
e 41 69
e 42 69
e 49 69
e 22 70
e 29 70
e 34 70
e 38 70
e 42 70
e 62 70
e 63 70
e 14 71
e 19 71
e 25 71
e 39 71
e 45 71
e 46 71
e 53 71
e 70 71
e 10 72
e 14 72
e 16 72
e 17 72
e 21 72
e 35 72
e 37 72
e 38 72
e 41 72
e 20 73
e 27 73
e 31 73
e 43 73
e 52 73
e 6 74
e 47 74
e 68 74
e 31 75
e 33 75
e 34 75
e 47 75
e 56 75
e 62 75
e 66 75
e 74 75
e 1 76
e 7 76
e 12 76
e 36 76
e 43 76
e 66 76
e 68 76
e 1 77
e 7 77
e 22 77
e 50 77
e 55 77
e 56 77
e 10 78
e 16 78
e 26 78
e 28 78
e 37 78
e 47 78
e 65 78
e 76 78
e 1 79
e 2 79
e 29 79
e 30 79
e 55 79
e 59 79
e 75 79
e 11 80
e 14 80
e 15 80
e 44 80
e 51 80
e 73 80
e 74 80
e 76 80
e 79 80
